178,485
415,364
738,388
852,461
948,542
1155,481
1166,563
1051,526
972,617
874,672
681,706
858,753
1095,471
921,528
808,533
765,939
598,662
523,624
695,318
591,406
654,353
778,336
841,487
880,470
1020,67
